************************************************************************
file with basedata            : 
initial value random generator: 
************************************************************************
projects                      :  1
jobs (incl. supersource/sink ):  66
horizon                       :  320
RESOURCES
  - renewable                 :  4   R
  - nonrenewable              :  0   N
  - doubly constrained        :  0   D
************************************************************************
PROJECT INFORMATION:
pronr.  #jobs rel.date duedate tardcost  MPM-Time
	1     64      0       10        1       10
************************************************************************
PRECEDENCE RELATIONS:
jobnr.    #modes  #successors   successors
   1        1         11           2   3   4   5   6   7   8   9  10  11  12 
   2        1          2          13  14 
   3        1          1          16 
   4        1          1          17 
   5        1          1          18 
   6        1          1          19 
   7        1          1          20 
   8        1          5          30  31  32  33  34 
   9        1          2          39  40 
  10        1          5          42  43  44  45  46 
  11        1          5          51  52  53  54  55 
  12        1          4          59  60  61  62 
  13        1          1          15 
  14        1          1          66 
  15        1          7          21  22  23  24  25  26  27 
  16        1          7          21  22  23  24  25  26  27 
  17        1          5          30  31  32  33  34 
  18        1          5          30  31  32  33  34 
  19        1          5          42  43  44  45  46 
  20        1          5          42  43  44  45  46 
  21        1          1          28 
  22        1          1          29 
  23        1          5          30  31  32  33  34 
  24        1          2          39  40 
  25        1          5          42  43  44  45  46 
  26        1          5          51  52  53  54  55 
  27        1          1          66 
  28        1          5          30  31  32  33  34 
  29        1          5          30  31  32  33  34 
  30        1          1          35 
  31        1          1          36 
  32        1          1          37 
  33        1          1          38 
  34        1          1          66 
  35        1          2          39  40 
  36        1          2          39  40 
  37        1          2          39  40 
  38        1          5          42  43  44  45  46 
  39        1          1          41 
  40        1          1          66 
  41        1          5          42  43  44  45  46 
  42        1          1          47 
  43        1          1          48 
  44        1          1          49 
  45        1          1          50 
  46        1          1          66 
  47        1          5          51  52  53  54  55 
  48        1          4          59  60  61  62 
  49        1          5          51  52  53  54  55 
  50        1          4          59  60  61  62 
  51        1          1          56 
  52        1          1          57 
  53        1          1          58 
  54        1          4          59  60  61  62 
  55        1          1          66 
  56        1          4          59  60  61  62 
  57        1          4          59  60  61  62 
  58        1          1          66 
  59        1          1          63 
  60        1          1          64 
  61        1          1          65 
  62        1          1          66 
  63        1          1          66 
  64        1          1          66 
  65        1          1          66 
  66        1          0         
************************************************************************
REQUESTS/DURATIONS:
jobnr. mode duration  R 1  R 2  R 3  R 4
------------------------------------------------------------------------
  1      1     0       0    0    0    0
  2      1     2       7    0    0    4
  3      1     8       6    8    1    0
  4      1     1       0    3    0    0
  5      1    10       0    0    0    0
  6      1     9       0    5    0    0
  7      1     4       5    0    0    5
  8      1     5       3    0    4    0
  9      1     5       4    0    4    6
 10      1    10       4    0    8    0
 11      1     1      10    8    9    0
 12      1     6      10    0    0    0
 13      1    10       0    0    4    0
 14      1    10       0    4    6    3
 15      1     1       6    0    0    4
 16      1     8       0    0    0    0
 17      1     8       0    0    4    1
 18      1     6       0    5    0    0
 19      1     5       0    0    0    5
 20      1     3       0    0    0    0
 21      1     7       0    0    0    8
 22      1     6       1    7    5    1
 23      1    10       0    5    8    0
 24      1     4       8   10    0    4
 25      1     9       3    0    0    0
 26      1     9       0    0    0   10
 27      1     5       0    2    9    0
 28      1     7       9   10    7    8
 29      1     8       1    9    0    4
 30      1     6       9   10    9    8
 31      1     8       0    0    0    3
 32      1     9       0    8    0    0
 33      1     6       6    7    0   10
 34      1     9       0    8    4    4
 35      1    10       0    0    2    0
 36      1     1       0    5    0    2
 37      1     2       5    4    0    0
 38      1     5       0    5    2    0
 39      1     7       0   10    3    2
 40      1    10       1    5    3    8
 41      1     5       6    8    0    5
 42      1     7       5    0   10    0
 43      1     1       0    0    5    0
 44      1    10       5    1    7    1
 45      1     2       4    0    1    0
 46      1     8       0    0    0    0
 47      1     8       0    7    3    0
 48      1     6       0    1    6    0
 49      1     3       0    0    4    0
 50      1     5       0    5    1    0
 51      1     1      10    0    0    8
 52      1     7       4    0    5    6
 53      1     4       0    0    0    7
 54      1     4       0    8    7    3
 55      1     6       0   10    0    2
 56      1     9       2    0    4    4
 57      1     7       1    0    7    0
 58      1     6       0    1    3    0
 59      1     7       8    0    0    0
 60      1    10       2    1   10    6
 61      1    10       2    0    1    0
 62      1     9       0    3    0    7
 63      1     6       0    0    0    0
 64      1     2       5    1    2    9
 65      1    10       0   10    0    0
 66      1     0       0    0    0    0
************************************************************************
RESOURCEAVAILABILITIES:
  R 1  R 2  R 3  R 4
   16   14   14   17
************************************************************************
